57	9	86	63	49	55	52	48	31	44	83	36	19	94	31	33	11	22	49	23
4	56	15	59	85	22	59	95	62	52	23	83	100	85	41	63	78	90	98	71
33	63	70	41	35	83	95	28	74	69	6	69	67	75	12	43	65	81	29	1
22	65	63	5	8	95	94	33	38	14	49	8	37	69	16	75	65	29	91	61
58	34	63	28	70	64	5	12	95	98	80	30	48	10	62	72	16	4	60	46
